233415
230616
230616
229806
229806
229806
229806
228388
225270
222199
221312
218534
216218
216218
216010
216010
214889
213513
213513
211393
211393
210769
210769
210081
209804
209163
208195
208044
208044
206504
206504
204432
204432
204432
204064
204064
204064
204064
203383
202192
201695
201695
201061
201061
199656
199656
199656
199656
199656
199656
198345
197868
197774
197342
197342
197342
197342
197342
197251
196624
196211
196211
194746
194645
194645
194228
194228
193272
193272
193272
190613
190613
190613
190613
190110
190110
189929
188125
188125
188125
188030
188030
188030
188030
187442
187442
187014
187014
187014
186330
185968
185968
185968
184774
184774
184774
184774
184774
184774
182486
